language ESSENCE' 1.0
$ loaded file: carseqdata/csplib-instance-68
letting numcars=200
letting numclasses=24
letting numoptions=5
letting optMax=[1, 2, 1, 2, 1]
letting windowSize=[2, 3, 3, 5, 5]
letting numberPerClass=[3, 3, 4, 9, 4, 8, 9, 25, 17, 6, 1, 21, 11, 17, 1, 4, 1, 3, 6, 10, 28, 1, 1, 7]
letting optionsRequired=[[1, 0, 1, 0, 1], [1, 1, 1, 1, 0], [0, 0, 1, 0, 1], [0, 0, 1, 0, 0], [0, 1, 1, 0, 1], [1, 0, 0, 1, 0], [0, 0, 1, 1, 0], [1, 1, 0, 0, 0], [1, 0, 0, 0, 0], [0, 0, 0, 0, 1], [1, 0, 1, 1, 0], [0, 0, 0, 1, 0], [1, 0, 1, 0, 0], [0, 1, 0, 1, 0], [1, 0, 0, 0, 1], [1, 1, 0, 0, 1], [0, 0, 1, 1, 1], [0, 1, 1, 1, 0], [1, 1, 0, 1, 0], [0, 1, 0, 0, 1], [0, 1, 0, 0, 0], [1, 1, 1, 0, 1], [1, 1, 0, 1, 1], [0, 1, 1, 0, 0]]
